set Stages := FirstStage SecondStage ;

set Nodes := RootNode 
Node1
Node2
Node3
Node4
Node5
Node6
Node7
Node8
Node9
Node10
Node11
Node12
Node13
Node14
Node15
Node16
Node17
Node18
Node19
Node20
Node21
Node22
Node23
Node24
Node25
Node26
Node27
;
param NodeStage := RootNode         FirstStage
Node1 SecondStage
Node2 SecondStage
Node3 SecondStage
Node4 SecondStage
Node5 SecondStage
Node6 SecondStage
Node7 SecondStage
Node8 SecondStage
Node9 SecondStage
Node10 SecondStage
Node11 SecondStage
Node12 SecondStage
Node13 SecondStage
Node14 SecondStage
Node15 SecondStage
Node16 SecondStage
Node17 SecondStage
Node18 SecondStage
Node19 SecondStage
Node20 SecondStage
Node21 SecondStage
Node22 SecondStage
Node23 SecondStage
Node24 SecondStage
Node25 SecondStage
Node26 SecondStage
Node27 SecondStage
;

set Children[RootNode] := Node1
Node2
Node3
Node4
Node5
Node6
Node7
Node8
Node9
Node10
Node11
Node12
Node13
Node14
Node15
Node16
Node17
Node18
Node19
Node20
Node21
Node22
Node23
Node24
Node25
Node26
Node27
;

param ConditionalProbability := RootNode          1.0
Node1 0.027
Node10 0.036
Node19 0.027
Node4 0.036
Node13 0.048
Node22 0.036
Node7 0.027
Node16 0.036
Node25 0.027
Node2 0.036
Node11 0.048
Node20 0.036
Node5 0.048
Node14 0.064
Node23 0.048
Node8 0.036
Node17 0.048
Node26 0.036
Node3 0.027
Node12 0.036
Node21 0.027
Node6 0.036
Node15 0.048
Node24 0.036
Node9 0.027
Node18 0.036
Node27 0.027
;

set Scenarios :=Scenario1
Scenario2
Scenario3
Scenario4
Scenario5
Scenario6
Scenario7
Scenario8
Scenario9
Scenario10
Scenario11
Scenario12
Scenario13
Scenario14
Scenario15
Scenario16
Scenario17
Scenario18
Scenario19
Scenario20
Scenario21
Scenario22
Scenario23
Scenario24
Scenario25
Scenario26
Scenario27
;

param ScenarioLeafNode :=Scenario1 Node1
Scenario2 Node2
Scenario3 Node3
Scenario4 Node4
Scenario5 Node5
Scenario6 Node6
Scenario7 Node7
Scenario8 Node8
Scenario9 Node9
Scenario10 Node10
Scenario11 Node11
Scenario12 Node12
Scenario13 Node13
Scenario14 Node14
Scenario15 Node15
Scenario16 Node16
Scenario17 Node17
Scenario18 Node18
Scenario19 Node19
Scenario20 Node20
Scenario21 Node21
Scenario22 Node22
Scenario23 Node23
Scenario24 Node24
Scenario25 Node25
Scenario26 Node26
Scenario27 Node27
;


set StageVariables[FirstStage] :=  yf[*,*]
                                    n[*]
                                    v[*]
                                    StageoneCost[*]
                                    ;
set StageVariables[SecondStage] := ys[*,*]
                                    ns[*]
                                    tl[*]
                                    b[*]
                                    StagetwoCost[*]
                                    L;

param StageCost := FirstStage  FirstStageCost
                   SecondStage SecondStageCost ;

param ScenarioBasedData := False ;